scip-hello-world/sample.lp
maximize
400 x1 + 300 x2
subject to
60 x1 + 40 x2 <= 3800
20 x1 + 30 x2 <= 2100
20 x1 + 10 x2 <= 1200
end

