scip-hello-world/sample.sol
solution status: optimal solution found
objective value:                                27000
x1                                                 30 	(obj:400)
x2                                                 50 	(obj:300)
